
    (define-sort ABS.StdLib.Int () Int)
    (define-sort ABS.StdLib.Float () Real)
    (define-sort ABS.StdLib.Bool () Bool)
    (define-sort ABS.StdLib.String () String)
	(define-fun min ((x Real) (y Real)) Real
  (ite (< x y) x y))
(define-fun max ((x Real) (y Real)) Real
  (ite (< x y) y x))
	(declare-fun p5 () Real)
	(declare-fun p3 () Real)
	(declare-fun p4 () Real)
	(declare-fun p32 () Real)
	(declare-fun p33 () Real)
	(declare-fun p89 () Real)
	(declare-fun p90 () Real)
	(declare-fun p1 () Real)
	(declare-fun p2 () Real)
	(assert (<= 0 p5 ))
	(assert (<= p5 1 ))
	(assert (<= 0 p3 ))
	(assert (<= p3 1 ))
	(assert (<= 0 p4 ))
	(assert (<= p4 1 ))
	(assert (<= 0 p32 ))
	(assert (<= p32 1 ))
	(assert (<= 0 p33 ))
	(assert (<= p33 1 ))
	(assert (<= 0 p89 ))
	(assert (<= p89 1 ))
	(assert (<= 0 p90 ))
	(assert (<= p90 1 ))
	(assert (<= 0 p1 ))
	(assert (<= p1 1 ))
	(assert (<= 0 p2 ))
	(assert (<= p2 1 ))
	(declare-const vp34 ABS.StdLib.Int)
	(declare-const vp61 ABS.StdLib.Int)
	(declare-const vp88 ABS.StdLib.Int)
	(declare-const vp91 ABS.StdLib.Int)
	(declare-const vp118 ABS.StdLib.Int)
	(declare-const vp145 ABS.StdLib.Int)
	(declare-const vp172 ABS.StdLib.Int)
	(declare-const vp199 ABS.StdLib.Int)
	(assert (<= p5 (+ (* p5 p3) (* (- 1 p5) p4))))(assert true)
	(assert (<= p5 1))
(assert true)
	(assert (<= p3 (+ (* (/  1 2) p32) (* (- 1 (/  1 2)) p33))))(assert (and true (<  vp34 20)))
	(assert (<= p32 1))
(assert (and true (<  vp61 20)))
	(assert (<= p33 1))
(assert (and true (<  vp88 20)))
	(assert (<= p4 (+ (* (/  1 2) p89) (* (- 1 (/  1 2)) p90))))(assert (and (not true) (<  vp91 20)))
	(assert (<= p89 1))
(assert (and (not true) (<  vp118 20)))
	(assert (<= p90 1))
(assert (and (not true) (<  vp145 20)))
	(assert (<= (/  1 2) (+ (* p5 p1) (* (- 1 p5) p2))))(assert true)
	(assert (= p1 0))
(assert (and true (not (<  vp172 20))))
	(assert (<= p2 1))
(assert (and (not true) (not (<  vp199 20))))
	(check-sat)